c FILE: i080-145

c SOURCE: From steinlib

c DESCRIPTION: Steinlib instance with 80 nodes and 632 edges.

p edge 80 632
e 1 3
e 1 4
e 1 9
e 1 10
e 1 15
e 1 16
e 1 17
e 1 41
e 1 43
e 1 45
e 1 48
e 1 52
e 1 68
e 1 70
e 1 74
e 1 76
e 1 78
e 2 16
e 2 17
e 2 30
e 2 44
e 2 45
e 2 47
e 2 56
e 2 61
e 2 72
e 2 73
e 2 77
e 3 17
e 3 28
e 3 36
e 3 38
e 3 42
e 3 48
e 3 51
e 3 54
e 3 60
e 3 61
e 3 80
e 4 6
e 4 16
e 4 21
e 4 24
e 4 26
e 4 29
e 4 49
e 4 58
e 4 72
e 4 74
e 4 76
e 5 17
e 5 20
e 5 32
e 5 33
e 5 36
e 5 37
e 5 43
e 5 48
e 5 50
e 5 61
e 5 65
e 5 68
e 5 75
e 6 8
e 6 10
e 6 22
e 6 25
e 6 26
e 6 28
e 6 30
e 6 33
e 6 34
e 6 35
e 6 39
e 6 43
e 6 47
e 6 63
e 6 66
e 6 74
e 6 75
e 6 79
e 7 23
e 7 24
e 7 28
e 7 41
e 7 56
e 7 58
e 7 59
e 7 60
e 7 64
e 7 66
e 7 67
e 7 69
e 7 73
e 7 78
e 8 10
e 8 18
e 8 19
e 8 21
e 8 24
e 8 32
e 8 37
e 8 39
e 8 44
e 8 48
e 8 53
e 8 55
e 8 58
e 8 60
e 8 65
e 8 66
e 8 69
e 8 78
e 9 21
e 9 23
e 9 30
e 9 31
e 9 38
e 9 39
e 9 40
e 9 46
e 9 55
e 9 63
e 9 66
e 9 69
e 9 72
e 9 74
e 9 79
e 10 13
e 10 17
e 10 19
e 10 20
e 10 25
e 10 26
e 10 28
e 10 30
e 10 41
e 10 44
e 10 51
e 10 52
e 10 54
e 10 60
e 10 63
e 10 70
e 10 76
e 10 77
e 10 79
e 11 20
e 11 27
e 11 29
e 11 33
e 11 36
e 11 46
e 11 48
e 11 54
e 11 58
e 11 63
e 12 14
e 12 17
e 12 19
e 12 27
e 12 29
e 12 35
e 12 37
e 12 41
e 12 50
e 12 58
e 12 64
e 12 65
e 12 67
e 12 73
e 12 74
e 12 75
e 12 76
e 13 19
e 13 20
e 13 21
e 13 27
e 13 29
e 13 36
e 13 50
e 13 58
e 13 62
e 13 63
e 13 70
e 13 71
e 13 75
e 14 26
e 14 32
e 14 33
e 14 36
e 14 42
e 14 45
e 14 55
e 14 60
e 14 64
e 14 65
e 14 66
e 14 72
e 14 75
e 15 17
e 15 20
e 15 24
e 15 35
e 15 50
e 15 55
e 15 57
e 15 64
e 15 70
e 15 73
e 16 19
e 16 20
e 16 23
e 16 24
e 16 26
e 16 31
e 16 32
e 16 36
e 16 43
e 16 44
e 16 50
e 16 59
e 16 60
e 16 64
e 16 73
e 16 75
e 16 80
e 17 47
e 17 55
e 17 57
e 17 61
e 17 70
e 17 75
e 17 77
e 18 20
e 18 24
e 18 27
e 18 30
e 18 31
e 18 34
e 18 38
e 18 50
e 18 55
e 18 59
e 18 65
e 18 66
e 19 22
e 19 23
e 19 36
e 19 44
e 19 59
e 19 60
e 19 66
e 19 72
e 19 75
e 19 80
e 20 25
e 20 28
e 20 37
e 20 40
e 20 44
e 20 51
e 20 59
e 20 66
e 20 68
e 20 71
e 21 23
e 21 27
e 21 46
e 21 51
e 21 52
e 21 57
e 21 69
e 21 72
e 22 31
e 22 32
e 22 44
e 22 47
e 22 53
e 22 56
e 22 67
e 22 74
e 22 75
e 22 76
e 23 27
e 23 32
e 23 35
e 23 36
e 23 41
e 23 42
e 23 45
e 23 48
e 23 57
e 23 59
e 23 68
e 23 70
e 23 71
e 23 72
e 23 76
e 23 79
e 24 42
e 24 58
e 24 68
e 24 77
e 25 29
e 25 31
e 25 33
e 25 42
e 25 45
e 25 52
e 25 57
e 25 62
e 25 63
e 25 65
e 25 72
e 25 80
e 26 39
e 26 42
e 26 44
e 26 48
e 26 53
e 26 58
e 26 62
e 26 67
e 26 69
e 26 71
e 26 74
e 26 77
e 26 78
e 26 80
e 27 28
e 27 41
e 27 42
e 27 47
e 27 48
e 27 52
e 27 55
e 27 57
e 27 66
e 27 73
e 28 31
e 28 36
e 28 37
e 28 53
e 28 60
e 28 62
e 28 66
e 28 68
e 28 69
e 28 72
e 29 34
e 29 38
e 29 42
e 29 47
e 29 48
e 29 56
e 29 62
e 29 73
e 29 79
e 29 80
e 30 33
e 30 40
e 30 41
e 30 48
e 30 50
e 30 52
e 30 62
e 30 66
e 30 67
e 30 72
e 31 37
e 31 52
e 31 59
e 31 61
e 31 66
e 31 70
e 31 73
e 31 76
e 32 33
e 32 37
e 32 38
e 32 39
e 32 47
e 32 59
e 32 62
e 32 64
e 32 65
e 32 71
e 32 74
e 32 75
e 32 80
e 33 45
e 33 60
e 33 61
e 33 65
e 33 67
e 33 76
e 34 47
e 34 48
e 34 53
e 34 56
e 34 59
e 34 64
e 34 65
e 35 36
e 35 37
e 35 53
e 35 71
e 35 73
e 35 74
e 35 78
e 36 39
e 36 40
e 36 42
e 36 43
e 36 48
e 36 51
e 36 53
e 36 55
e 36 56
e 36 57
e 36 58
e 36 61
e 36 63
e 36 66
e 36 70
e 36 73
e 36 75
e 36 77
e 37 39
e 37 47
e 37 60
e 37 62
e 37 67
e 37 73
e 37 79
e 38 43
e 38 52
e 38 62
e 38 66
e 38 68
e 38 70
e 38 73
e 38 74
e 38 78
e 39 45
e 39 54
e 39 64
e 39 69
e 39 70
e 39 78
e 40 42
e 40 44
e 40 47
e 40 48
e 40 49
e 40 52
e 40 57
e 40 72
e 40 73
e 41 54
e 41 67
e 41 68
e 41 71
e 41 72
e 41 75
e 41 76
e 41 79
e 41 80
e 42 48
e 42 51
e 42 53
e 42 55
e 42 60
e 42 65
e 42 67
e 42 70
e 42 71
e 42 77
e 43 58
e 43 60
e 43 63
e 43 73
e 44 51
e 44 55
e 44 57
e 44 58
e 44 68
e 44 71
e 44 75
e 44 76
e 45 47
e 45 49
e 45 50
e 45 53
e 45 54
e 45 58
e 45 59
e 45 62
e 45 70
e 45 73
e 45 74
e 45 78
e 46 52
e 46 56
e 46 57
e 46 65
e 46 67
e 46 68
e 46 72
e 46 75
e 46 76
e 47 51
e 47 55
e 47 56
e 47 60
e 47 68
e 47 72
e 47 75
e 47 78
e 48 49
e 48 58
e 48 59
e 49 50
e 49 52
e 49 55
e 49 57
e 49 61
e 49 62
e 49 67
e 49 76
e 49 79
e 49 80
e 50 56
e 50 57
e 50 67
e 50 68
e 50 70
e 50 73
e 50 79
e 51 54
e 51 55
e 51 65
e 51 66
e 51 67
e 51 73
e 51 74
e 51 76
e 52 57
e 52 66
e 53 56
e 53 57
e 53 59
e 53 61
e 53 64
e 53 65
e 53 67
e 53 71
e 53 76
e 53 77
e 54 67
e 54 75
e 54 79
e 55 56
e 55 61
e 55 63
e 55 73
e 56 74
e 56 76
e 56 79
e 57 58
e 57 60
e 57 68
e 57 69
e 57 72
e 57 79
e 58 63
e 58 75
e 58 76
e 59 67
e 59 73
e 59 78
e 60 61
e 60 66
e 60 76
e 61 62
e 61 68
e 61 70
e 61 71
e 61 72
e 61 74
e 61 75
e 61 77
e 61 78
e 62 69
e 62 71
e 62 72
e 62 74
e 62 78
e 64 66
e 64 75
e 64 79
e 65 69
e 65 70
e 65 77
e 66 68
e 66 69
e 66 71
e 66 72
e 66 75
e 67 71
e 67 72
e 68 70
e 68 78
e 69 70
e 69 74
e 69 77
e 69 79
e 69 80
e 70 72
e 70 75
e 70 76
e 70 79
e 71 72
e 71 76
e 71 79
e 72 74
e 73 78
e 74 75
e 75 77
e 75 80
e 76 77
